[ti. 04. april 17:58:30 +0200 2023]  ./input/alternate_g_np/50-3-2.gcc
Set parameter Username
Academic license - for non-commercial use only - expires 2024-03-28
Set parameter TimeLimit to value 1800
Set parameter PreCrush to value 1
Set parameter LazyConstraints to value 1
Gurobi Optimizer version 10.0.1 build v10.0.1rc0 (linux64)

CPU model: AMD Ryzen 9 5950X 16-Core Processor, instruction set [SSE2|AVX|AVX2]
Thread count: 16 physical cores, 32 logical processors, using up to 32 threads

Optimize a model with 59 rows, 500 columns and 1400 nonzeros
Model fingerprint: 0x11b549df
Variable types: 0 continuous, 500 integer (500 binary)
Coefficient statistics:
  Matrix range     [1e+00, 1e+00]
  Objective range  [3e+00, 1e+02]
  Bounds range     [1e+00, 1e+00]
  RHS range        [1e+00, 1e+00]
Presolve time: 0.00s
Presolved: 59 rows, 500 columns, 1400 nonzeros
Variable types: 0 continuous, 500 integer (500 binary)

Root relaxation: objective 2.648000e+03, 9 iterations, 0.00 seconds (0.00 work units)

    Nodes    |    Current Node    |     Objective Bounds      |     Work
 Expl Unexpl |  Obj  Depth IntInf | Incumbent    BestBd   Gap | It/Node Time

     0     0 2648.00000    0    9          - 2648.00000      -     -    0s
     0     0 2648.00000    0    7          - 2648.00000      -     -    0s
     0     0 2648.00000    0    -          - 2648.00000      -     -    0s
     0     0 2648.00000    0    -          - 2648.00000      -     -    0s
     0     0 2648.00000    0   13          - 2648.00000      -     -    0s
     0     0 2648.00000    0    -          - 2648.00000      -     -    0s
     0     0 2648.00000    0   13          - 2648.00000      -     -    0s
     0     0 2648.00000    0    9          - 2648.00000      -     -    0s
     0     2 2648.00000    0    6          - 2648.00000      -     -    0s
 47987 23640 2648.00000   28    2          - 2648.00000      -   7.0    5s
 90070 46606 2648.00000   64    -          - 2648.00000      -  10.7   10s
 107177 55499 infeasible   65               - 2648.00000      -  13.4   15s
 135695 65116 2559.00000   69    -          - 2648.00000      -  16.9   20s
 162250 73669 2648.00000   81   50          - 2648.00000      -  21.3   25s
 182657 82538 2648.00000   39   58          - 2648.00000      -  24.5   30s
 204027 88464 2644.00000   66    -          - 2648.00000      -  27.3   35s
 220950 94822 2557.62500   59   52          - 2648.00000      -  29.4   40s
 235965 98373 2627.36184   49  115          - 2648.00000      -  32.0   45s
H242005 62116                    2567.0000000 2648.00000  3.16%  33.1   48s
H244506 43359                    2609.0000014 2648.00000  1.49%  33.5   49s
 245818 42949 2648.00000   45  116 2609.00000 2648.00000  1.49%  33.8   51s
 253446 44358 2640.75000   55  104 2609.00000 2648.00000  1.49%  37.9   55s
 259139 45800 2613.00000   42    - 2609.00000 2648.00000  1.49%  40.7   63s
 260432 46297 2648.00000   67   39 2609.00000 2648.00000  1.49%  41.4   65s
 266682 48337 2627.00000   86   51 2609.00000 2648.00000  1.49%  44.4   70s
*268102  2181              43    2648.0000000 2648.00000  0.00%  44.8   70s

Cutting planes:
  User: 413
  Flow cover: 1
  Lazy constraints: 3921

Explored 268630 nodes (12091582 simplex iterations) in 70.80 seconds (82.04 work units)
Thread count was 32 (of 32 available processors)

Solution count 3: 2648 2609 2567 

Optimal solution found (tolerance 1.00e-04)
Best objective 2.648000000000e+03, best bound 2.648000000000e+03, gap 0.0000%

User-callback calls 550520, time in user-callback 9.04 sec
Minimal separator inequalities added: 252109
Indegree inequalities added: 0
Passed solution check
[ti. 04. april 17:59:40 +0200 2023]  done

